problems/csplib-prob015/SchursLemma-models/noch/O2/lingeling/model_1_3-4-11-solution000001.eprime-solution
language ESSENCE' 1.0

letting boxes_PartitionAsSet_ExplicitR5_ExplicitVarSizeWithMarker_Marker be [2, 2, 3, 4; int(1..4)]
letting boxes_PartitionAsSet_ExplicitR5_ExplicitVarSizeWithMarker_Values be
        [[2, 4, 1, 1, 1, 1, 1, 1, 1, 1, 1; int(1..11)], [5, 7, 1, 1, 1, 1, 1, 1, 1, 1, 1; int(1..11)],
         [9, 10, 11, 1, 1, 1, 1, 1, 1, 1, 1; int(1..11)], [1, 3, 6, 8, 1, 1, 1, 1, 1, 1, 1; int(1..11)]; int(1..4)]
