problems/csplib-prob015/SchursLemma-models/noch/O2/lingeling/model_1_3-4-11-solution000001.solution
language Essence 1.3

letting boxes be partition({1, 3, 6, 8}, {2, 4}, {5, 7}, {9, 10, 11})
